nK = 405;
nT = 4;
nI = 7;
L = 29;
TT = 109;
np = 1;
nc = 3;
b = [52, 46, 49, 59, 32, 28, 62];
d = [144, 107, 77, 127, 101, 143, 94];
m = [1.6, 2.3, 2, 1.7, 2, 2.1, 1.9];
pt = [0.25, 0.3, 0.24, 0.27];
st = [14.75, 15.3, 11.76, 13.23];
arc = {<1, 0, 1, 1, 0, 0, 0, [1, 1, 1, 1]>, <2, 1, 2, 1, 0, 0, 0, [1, 1, 1, 1]>, <3, 2, 3, 1, 0, 0, 0, [1, 1, 1, 1]>, <4, 3, 4, 1, 0, 0, 0, [1, 1, 1, 1]>, <5, 4, 5, 1, 0, 0, 0, [1, 1, 1, 1]>, <6, 5, 6, 1, 0, 0, 0, [1, 1, 1, 1]>, <7, 6, 7, 1, 0, 0, 0, [1, 1, 1, 1]>, <8, 7, 8, 1, 0, 0, 0, [1, 1, 1, 1]>, <9, 8, 9, 1, 0, 0, 0, [1, 1, 1, 1]>, <10, 9, 10, 1, 0, 0, 0, [1, 1, 1, 1]>, <11, 10, 11, 1, 0, 0, 0, [1, 1, 1, 1]>, <12, 11, 12, 1, 0, 0, 0, [1, 1, 1, 1]>, <13, 12, 13, 1, 0, 0, 0, [1, 1, 1, 1]>, <14, 13, 14, 1, 0, 0, 0, [1, 1, 1, 1]>, <15, 14, 15, 1, 0, 0, 0, [1, 1, 1, 1]>, <16, 15, 16, 1, 0, 0, 0, [1, 1, 1, 1]>, <17, 16, 17, 1, 0, 0, 0, [1, 1, 1, 1]>, <18, 17, 18, 1, 0, 0, 0, [1, 1, 1, 1]>, <19, 18, 19, 1, 0, 0, 0, [1, 1, 1, 1]>, <20, 19, 20, 1, 0, 0, 0, [1, 1, 1, 1]>, <21, 20, 21, 1, 0, 0, 0, [1, 1, 1, 1]>, <22, 21, 22, 1, 0, 0, 0, [1, 1, 1, 1]>, <23, 22, 23, 1, 0, 0, 0, [1, 1, 1, 1]>, <24, 23, 24, 1, 0, 0, 0, [1, 1, 1, 1]>, <25, 24, 25, 1, 0, 0, 0, [1, 1, 1, 1]>, <26, 25, 26, 1, 0, 0, 0, [1, 1, 1, 1]>, <27, 26, 27, 1, 0, 0, 0, [1, 1, 1, 1]>, <28, 27, 28, 1, 0, 0, 0, [1, 1, 1, 1]>, <29, 28, 29, 1, 0, 0, 0, [1, 1, 1, 1]>, <30, 1, 12, 11, 1, 0, 1, [1, 1, 0, 1]>, <31, 2, 13, 11, 1, 0, 1, [1, 1, 0, 1]>, <32, 3, 14, 11, 1, 0, 1, [1, 1, 0, 1]>, <33, 4, 15, 11, 1, 0, 1, [1, 1, 0, 1]>, <34, 5, 16, 11, 1, 0, 1, [1, 1, 0, 1]>, <35, 9, 20, 11, 1, 0, 1, [1, 1, 0, 1]>, <36, 10, 21, 11, 1, 0, 1, [1, 1, 0, 1]>, <37, 11, 22, 11, 1, 0, 1, [1, 1, 0, 1]>, <38, 12, 23, 11, 1, 0, 1, [1, 1, 0, 1]>, <39, 13, 24, 11, 1, 0, 1, [1, 1, 0, 1]>, <40, 14, 25, 11, 1, 0, 1, [1, 1, 0, 1]>, <41, 15, 26, 11, 1, 0, 1, [1, 1, 0, 1]>, <42, 16, 27, 11, 1, 0, 1, [1, 1, 0, 1]>, <43, 17, 28, 11, 1, 0, 1, [1, 1, 0, 1]>, <44, 18, 29, 11, 1, 0, 1, [1, 1, 0, 1]>, <45, 4, 12, 8, 2, 0, 0, [1, 1, 1, 0]>, <46, 5, 13, 8, 2, 0, 0, [1, 1, 1, 0]>, <47, 11, 19, 8, 2, 0, 0, [1, 1, 1, 0]>, <48, 12, 20, 8, 2, 0, 0, [1, 1, 1, 0]>, <49, 16, 24, 8, 2, 0, 0, [1, 1, 1, 0]>, <50, 17, 25, 8, 2, 0, 0, [1, 1, 1, 0]>, <51, 18, 26, 8, 2, 0, 0, [1, 1, 1, 0]>, <52, 19, 27, 8, 2, 0, 0, [1, 1, 1, 0]>, <53, 20, 28, 8, 2, 0, 0, [1, 1, 1, 0]>, <54, 3, 12, 9, 3, 0, 0, [1, 0, 1, 1]>, <55, 4, 13, 9, 3, 0, 0, [1, 0, 1, 1]>, <56, 5, 14, 9, 3, 0, 0, [1, 0, 1, 1]>, <57, 11, 20, 9, 3, 0, 0, [1, 0, 1, 1]>, <58, 12, 21, 9, 3, 0, 0, [1, 0, 1, 1]>, <59, 15, 24, 9, 3, 0, 0, [1, 0, 1, 1]>, <60, 16, 25, 9, 3, 0, 0, [1, 0, 1, 1]>, <61, 17, 26, 9, 3, 0, 0, [1, 0, 1, 1]>, <62, 18, 27, 9, 3, 0, 0, [1, 0, 1, 1]>, <63, 19, 28, 9, 3, 0, 0, [1, 0, 1, 1]>, <64, 20, 29, 9, 3, 0, 0, [1, 0, 1, 1]>, <65, 1, 12, 11, 4, 0, 0, [1, 1, 0, 1]>, <66, 2, 13, 11, 4, 0, 0, [1, 1, 0, 1]>, <67, 3, 14, 11, 4, 0, 0, [1, 1, 0, 1]>, <68, 4, 15, 11, 4, 0, 0, [1, 1, 0, 1]>, <69, 5, 16, 11, 4, 0, 0, [1, 1, 0, 1]>, <70, 9, 20, 11, 4, 0, 0, [1, 1, 0, 1]>, <71, 10, 21, 11, 4, 0, 0, [1, 1, 0, 1]>, <72, 11, 22, 11, 4, 0, 0, [1, 1, 0, 1]>, <73, 12, 23, 11, 4, 0, 0, [1, 1, 0, 1]>, <74, 13, 24, 11, 4, 0, 0, [1, 1, 0, 1]>, <75, 14, 25, 11, 4, 0, 0, [1, 1, 0, 1]>, <76, 15, 26, 11, 4, 0, 0, [1, 1, 0, 1]>, <77, 16, 27, 11, 4, 0, 0, [1, 1, 0, 1]>, <78, 17, 28, 11, 4, 0, 0, [1, 1, 0, 1]>, <79, 18, 29, 11, 4, 0, 0, [1, 1, 0, 1]>, <80, 4, 12, 8, 5, 0, 0, [0, 1, 1, 1]>, <81, 5, 13, 8, 5, 0, 0, [0, 1, 1, 1]>, <82, 11, 19, 8, 5, 0, 0, [0, 1, 1, 1]>, <83, 12, 20, 8, 5, 0, 0, [0, 1, 1, 1]>, <84, 16, 24, 8, 5, 0, 0, [0, 1, 1, 1]>, <85, 17, 25, 8, 5, 0, 0, [0, 1, 1, 1]>, <86, 18, 26, 8, 5, 0, 0, [0, 1, 1, 1]>, <87, 19, 27, 8, 5, 0, 0, [0, 1, 1, 1]>, <88, 20, 28, 8, 5, 0, 0, [0, 1, 1, 1]>, <89, 3, 12, 9, 6, 0, 1, [1, 1, 0, 1]>, <90, 4, 13, 9, 6, 0, 1, [1, 1, 0, 1]>, <91, 5, 14, 9, 6, 0, 1, [1, 1, 0, 1]>, <92, 11, 20, 9, 6, 0, 1, [1, 1, 0, 1]>, <93, 12, 21, 9, 6, 0, 1, [1, 1, 0, 1]>, <94, 15, 24, 9, 6, 0, 1, [1, 1, 0, 1]>, <95, 16, 25, 9, 6, 0, 1, [1, 1, 0, 1]>, <96, 17, 26, 9, 6, 0, 1, [1, 1, 0, 1]>, <97, 18, 27, 9, 6, 0, 1, [1, 1, 0, 1]>, <98, 19, 28, 9, 6, 0, 1, [1, 1, 0, 1]>, <99, 20, 29, 9, 6, 0, 1, [1, 1, 0, 1]>, <100, 1, 12, 11, 7, 0, 0, [1, 0, 1, 1]>, <101, 2, 13, 11, 7, 0, 0, [1, 0, 1, 1]>, <102, 3, 14, 11, 7, 0, 0, [1, 0, 1, 1]>, <103, 4, 15, 11, 7, 0, 0, [1, 0, 1, 1]>, <104, 5, 16, 11, 7, 0, 0, [1, 0, 1, 1]>, <105, 9, 20, 11, 7, 0, 0, [1, 0, 1, 1]>, <106, 10, 21, 11, 7, 0, 0, [1, 0, 1, 1]>, <107, 11, 22, 11, 7, 0, 0, [1, 0, 1, 1]>, <108, 12, 23, 11, 7, 0, 0, [1, 0, 1, 1]>, <109, 13, 24, 11, 7, 0, 0, [1, 0, 1, 1]>, <110, 14, 25, 11, 7, 0, 0, [1, 0, 1, 1]>, <111, 15, 26, 11, 7, 0, 0, [1, 0, 1, 1]>, <112, 16, 27, 11, 7, 0, 0, [1, 0, 1, 1]>, <113, 17, 28, 11, 7, 0, 0, [1, 0, 1, 1]>, <114, 18, 29, 11, 7, 0, 0, [1, 0, 1, 1]>};
